50, 613
14, 14
24, 24
22, 22
4, 4
34, 34
42, 42
12, 12
8, 8
4, 4
4, 4
12, 12
4, 4
26, 26
28, 28
34, 34
8, 8
22, 22
28, 28
36, 36
24, 24
50, 50
20, 20
8, 8
2, 2
26, 26
48, 48
2, 2
46, 46
40, 40
28, 28
48, 48
26, 26
36, 36
28, 28
50, 50
50, 50
24, 24
2, 2
30, 30
38, 38
24, 24
38, 38
26, 26
12, 12
16, 16
34, 34
26, 26
28, 28
10, 10
18, 18
